152 5
3 3 3 3 3
0  0 0 0 0 0  30 2 7 12 17 22 27 32 37 42 47 52 57 62 67 72 77 82 87 92 97 102 107 112 117 122 127 132 137 142 147
20  1 0 0 0 0  1 3
87  0 0 0 1 0  1 4
31  0 1 0 0 0  1 5
76  0 0 0 0 1  1 6
17  0 0 1 0 0  1 152
25  0 0 0 0 1  1 8
32  0 0 1 0 0  1 9
24  1 0 0 0 0  1 10
18  0 1 0 0 0  1 11
81  0 0 0 1 0  1 152
72  0 1 0 0 0  1 13
23  0 0 1 0 0  1 14
28  0 0 0 0 1  1 15
58  1 0 0 0 0  1 16
99  0 0 0 1 0  1 152
86  0 0 1 0 0  1 18
76  0 1 0 0 0  1 19
97  0 0 0 0 1  1 20
45  1 0 0 0 0  1 21
90  0 0 0 1 0  1 152
27  0 0 0 0 1  1 23
42  1 0 0 0 0  1 24
48  0 0 0 1 0  1 25
17  0 0 1 0 0  1 26
46  0 1 0 0 0  1 152
67  0 1 0 0 0  1 28
98  1 0 0 0 0  1 29
48  0 0 0 0 1  1 30
27  0 0 0 1 0  1 31
62  0 0 1 0 0  1 152
28  0 0 0 0 1  1 33
12  0 1 0 0 0  1 34
19  0 0 0 1 0  1 35
80  1 0 0 0 0  1 36
50  0 0 1 0 0  1 152
63  0 1 0 0 0  1 38
94  1 0 0 0 0  1 39
98  0 0 1 0 0  1 40
50  0 0 0 1 0  1 41
80  0 0 0 0 1  1 152
14  0 0 0 0 1  1 43
75  1 0 0 0 0  1 44
50  0 0 1 0 0  1 45
41  0 1 0 0 0  1 46
55  0 0 0 1 0  1 152
72  0 0 0 0 1  1 48
18  0 0 1 0 0  1 49
37  0 1 0 0 0  1 50
79  0 0 0 1 0  1 51
61  1 0 0 0 0  1 152
20  1 0 0 0 0  1 53
87  0 0 0 1 0  1 54
31  0 1 0 0 0  1 55
76  0 0 0 0 1  1 56
17  0 0 1 0 0  1 152
25  0 0 0 0 1  1 58
32  0 0 1 0 0  1 59
24  1 0 0 0 0  1 60
18  0 1 0 0 0  1 61
81  0 0 0 1 0  1 152
72  0 1 0 0 0  1 63
23  0 0 1 0 0  1 64
28  0 0 0 0 1  1 65
58  1 0 0 0 0  1 66
99  0 0 0 1 0  1 152
86  0 0 1 0 0  1 68
76  0 1 0 0 0  1 69
97  0 0 0 0 1  1 70
45  1 0 0 0 0  1 71
90  0 0 0 1 0  1 152
27  0 0 0 0 1  1 73
42  1 0 0 0 0  1 74
48  0 0 0 1 0  1 75
17  0 0 1 0 0  1 76
46  0 1 0 0 0  1 152
67  0 1 0 0 0  1 78
98  1 0 0 0 0  1 79
48  0 0 0 0 1  1 80
27  0 0 0 1 0  1 81
62  0 0 1 0 0  1 152
28  0 0 0 0 1  1 83
12  0 1 0 0 0  1 84
19  0 0 0 1 0  1 85
80  1 0 0 0 0  1 86
50  0 0 1 0 0  1 152
63  0 1 0 0 0  1 88
94  1 0 0 0 0  1 89
98  0 0 1 0 0  1 90
50  0 0 0 1 0  1 91
80  0 0 0 0 1  1 152
14  0 0 0 0 1  1 93
75  1 0 0 0 0  1 94
50  0 0 1 0 0  1 95
41  0 1 0 0 0  1 96
55  0 0 0 1 0  1 152
72  0 0 0 0 1  1 98
18  0 0 1 0 0  1 99
37  0 1 0 0 0  1 100
79  0 0 0 1 0  1 101
61  1 0 0 0 0  1 152
20  1 0 0 0 0  1 103
87  0 0 0 1 0  1 104
31  0 1 0 0 0  1 105
76  0 0 0 0 1  1 106
17  0 0 1 0 0  1 152
25  0 0 0 0 1  1 108
32  0 0 1 0 0  1 109
24  1 0 0 0 0  1 110
18  0 1 0 0 0  1 111
81  0 0 0 1 0  1 152
72  0 1 0 0 0  1 113
23  0 0 1 0 0  1 114
28  0 0 0 0 1  1 115
58  1 0 0 0 0  1 116
99  0 0 0 1 0  1 152
86  0 0 1 0 0  1 118
76  0 1 0 0 0  1 119
97  0 0 0 0 1  1 120
45  1 0 0 0 0  1 121
90  0 0 0 1 0  1 152
27  0 0 0 0 1  1 123
42  1 0 0 0 0  1 124
48  0 0 0 1 0  1 125
17  0 0 1 0 0  1 126
46  0 1 0 0 0  1 152
67  0 1 0 0 0  1 128
98  1 0 0 0 0  1 129
48  0 0 0 0 1  1 130
27  0 0 0 1 0  1 131
62  0 0 1 0 0  1 152
28  0 0 0 0 1  1 133
12  0 1 0 0 0  1 134
19  0 0 0 1 0  1 135
80  1 0 0 0 0  1 136
50  0 0 1 0 0  1 152
63  0 1 0 0 0  1 138
94  1 0 0 0 0  1 139
98  0 0 1 0 0  1 140
50  0 0 0 1 0  1 141
80  0 0 0 0 1  1 152
14  0 0 0 0 1  1 143
75  1 0 0 0 0  1 144
50  0 0 1 0 0  1 145
41  0 1 0 0 0  1 146
55  0 0 0 1 0  1 152
72  0 0 0 0 1  1 148
18  0 0 1 0 0  1 149
37  0 1 0 0 0  1 150
79  0 0 0 1 0  1 151
61  1 0 0 0 0  1 152
0  0 0 0 0 0  0
